     60      3     43    660     10
     45     30     33
     43     59     30     41     32     36     43     41     54     32     16      6     46     25     13      9     58     19     44     54     40     51     55     56     32     11     20     12     59     26     16     28     32     34     38     11     14      8     38     23     28      9     29     16     24     55     12      4     38     35     26     45      4     38      3     24     31     18     27     30     29     11      7     46     25     49     47     17     32     18     39     10     47      7      0     25      1     38     28     20      4     50     43     29     59     26     40     32     51     59      8     47      2     59     55     44     28      7     36     26      2     48     16     40     28     46     10     38     36     21     56     22     21      9     14     30     35     34     18     25
    -35     72    -31     60     69    127    -17     -8     14     66     67    119     22    131    144    -30    124     57    118    136     40    -27      8     -5    134    144     82    105    142    135
     10     11     13     11	    223     70     25     29      9      0      0      0      0      0      0      0      0      0      0      0      0    140      0      0      0    154     47    164      0     97      0      0      0      0      0      0      0      0      0      0      0      0      0      0      0      0      0      0      0      0      0      0      0      0      0      0      0      0     -3     88      0      0      0     -4      0      0      0      0      0
      7     11     15     14	    356    198     32     32      9      0      0      0      0      0      0      0    119      0      0      0      0      0    159    -36      0      0      0      0      0    167      0      0     10      0    161      0      0      0      0     93      0      0      0      0      0      0      1      0      0     67    231    215      0      0      0      0      0      0      0      0      0      0      0      0      0      0      0      0      0
     12     10     15     10	    252     57     35     43     10      0      0      0    194      0      0      0      0      0      0      0      5      0      0      0      0    189      0      0      0      0      0      0     19      0      0      0      0      0      0      0      0      0      0      0    142      0      0    -18      0      0      0      0      0      0      0      0      0      0     71      0      0      0      0     38      0    197     16      0      0
      7     10     11     12	    277    150     27     42      4      0      0    194      0      0      0      0    118      0      0      0      0      0      0      0    124      0    142    -53      0      0      0      0     50    -39      0      0      0      0      0    111      0    -44      0      0      0      0      0      0     97     46     16      0      0      0      0      0     68      0      0      0      0      0    139      0      0      0      0      0      0
     11     12     15     10	    286     58     21     43      7      0      0      0      0      0     91      0     30      0      0    165      0      0      0      0     10      0      0      0      0      0      0      0      0      0      0     72    111      0      0    135      0      0      0      0      0      0      0      0      0      0      0      0      0      0      0      0    -19      0     95      0      0      0      0     43      0      0      0      0      0
      8     14     14     12	    482    279     16     42      3      0      0      0      0     91      0      0      0      0      0      0      0      0      0      0     98      0      0      0    130      0      0      0      1      0      0      0      0    112      0      0      0      0      0      0      0      0      0      0      0      0    172      0      0      0    135      0      0      0      0      0     57      0      0      0      0      0      0      0      0
      7     10     14     15	    316    133     19     41      9      0      0      0      0      0      0      0      0      0      0      0      0     -8    -21      0      0      0      0      0      0      0      0      0      0      0      0      0      0    188      0      0      0      0      0      0      0      0      0      0    120      0      0      0      0     85      0      0      0      0    247      0      0      0      0      0      0    103      0      0      0
      7     13     10     10	    151     50     24     37      1      0    119      0    118     30      0      0      0      0      0      0      0      0      0      0      0      0      0      0     88      0      0      0      0      0    114      0      0      0      0    -27     15      0     43      0    120     29    -28      0      0      0      0      0      0      0      0     30      0      0      0      0      0      0      0      0      0      0      0      0     45
     12     12     12     14	    288     62     37     43      6      0      0      0      0      0      0      0      0      0      0     -8      0      0      0      0     42      0      0      0      0    205      0      0      0    139      0      0      0      0      0     64      0    -16      0      0      0      0      0      9      0      0      0      0      0    105    -15     87      0      0      0      0      0      0      0      0      0      0      0      0      0
     11     15     12     10	    133     67     43     43      5      0      0      0      0      0      0      0      0      0      0      0      0      0     17      0      0      0      0      0      0      0      0      0      0      0    -17      0     75      0      0      0      0      0      0    100    -16      0     75      0    -14      0     26      0      0      3      0     93      0      0      0      0      0      0      0      0     71      0      0      4     94
     10     14     15     13	    388    239     24     43      9      0      0      0      0    165      0      0      0     -8      0      0      0    -34      0      0      0      0      0      0      0     73    200      0      0      0      0      0    234      0      0      0      0      0      0    -47      0      0      0      0      0      0      0      0      0      0      0      0      0      0      0      0      0     88      0      0      0    -40      0    -19      0
     12     14     10     13	    211     97     19     24      7      0      0      5      0      0      0      0      0      0      0      0      0    -13      0      0      0      0     80    127      0      0      0     60     39      0      0      0      0      0      0     54      0      0      0      0      0      0    118      0      0      0      0      0      0      0      0     10      0      0      0      0      0    122      0      0     15      0      0      0      0
     11     13     12     12	    208     71     39     41      6    140      0      0      0      0      0     -8      0      0      0    -34    -13      0      0      0    142    102      0      0     39      0      0      0      0      0      0      0      0      0      0     69      0     27      0    154      0      0      0    125     73      0      0      0      0      0      0      0      0      0      0    159    -17      0      0     19    132      0      0      0      0
      6     15     11     11	    468    258     32     37      1      0    159      0      0      0      0    -21      0      0     17      0      0      0      0     44      0      0      0      0      0      0      0      0     12      0    119      0      0      0     28      0      0      0      0      0      0      0      0      0      0      0      0      0      0      0      0      0      0      0      0      0      0      0      0      0      0      0    112      0      0
      9     10     12     11	    291    178     23     42      7      0    -36      0      0      0      0      0      0      0      0      0      0      0     44      0      0      0      0      0      0      0      0      0    105      0      0     97    178      0    190      0      0    -18      0    -15     15      0      0      0      0      0      0      0      0      0      0     41     90      0      0      0      0      0      0      0      0      0      0      0    111
      7     12     15     14	    265    160      7     31      9      0      0      0    124     10     98      0      0     42      0      0      0    142      0      0      0      0      0      0    -29    149      0      0      0    -41      0      0    -40      0      0      0      0      0      0      0      0    115      0      0      0      0     38     96      0      8     76      0      0      0      0      0      0      0     33      0      0      0      0      0      0
     11     12     12     10	    447    224     31     43      6    154      0    189      0      0      0      0      0      0      0      0      0    102      0      0      0      0      0      0      0      0      0      0      0      0    156      0      0    307      0      0      0      0      0    112      0      0      0      0      0      0      0     82      0      0      0      0      0     79      0      0      0      0     -8     74      0      0      0      0      0
      9     12     14     12	    240     81     27     28      4     47      0      0    142      0      0      0      0      0      0      0     80      0      0      0      0      0      0      0      0      0      0      0      0     62      0    126      0      0      0      0    -14      0      0      0      3      0      0     46      0      0      0     49      0      0      0      0      0     55      0      0      0      0      0      0     74     51      0      0     44
      8     10     14     10	    487    316     16     25      4    164      0      0    -53      0      0      0      0      0      0      0    127      0      0      0      0      0      0      0      0      0      0      0      0      0    186      0      0      0      0      0      0      0    -19      0      0      0    -20      0      0      0      0      0      0      0      0      0      0      0      0      0      0     17      0      0    301      0      0      0      0
      6     12     14     13	    205    114     10     29      9      0      0      0      0      0    130      0     88      0      0      0      0     39      0      0    -29      0      0      0      0      0      0      0    -21      0      1      0      0      0      0      0      0      0      0      0      0      0     49      0      0      0      0    115      0     74      0      0      0      0      0      0     93     18      0      0    110      0      0     53      0
      8     14     10     11	    260     88      9     27      7     97    167      0      0      0      0      0      0    205      0     73      0      0      0      0    149      0      0      0      0      0      0      0      0     73      0      0      0      0      0     99      0     38      0      0      0      0      0      0      0      0     93    127      0      0    -16    163      0      0      0    -22      0    -28      0      0     96      0      0      0      0
     10     10     10     14	    256    116     15     38      8      0      0      0      0      0      0      0      0      0      0    200      0      0      0      0      0      0      0      0      0      0      0      0      0      0     23      0      0      9     92     59    110      0     17      0      0     22      0      0      0      0      0      0      0     34      0      0      0    126      0      0      0      0      0      0    177     50      0      0    110
      9     10     12     14	    397    209     18     28      5      0      0      0      0      0      0      0      0      0      0      0     60      0      0      0      0      0      0      0      0      0      0      0      0    -50      0    131    290      0      0      0      0      0     51      0      0     -5      0      0      0      0      0      0    -32      0      0      0      0      0      0      0    127      0      0      0      0      0      0      0      0
      8     15     10     14	    133     80     40     40      4      0     10     19     50      0      1      0      0      0      0      0     39      0     12    105      0      0      0      0    -21      0      0      0      0      0      0      0      0      0     -5      0      0      0     62      0      0      0      0      0      0      0      0      0      0     -5      0      0      0      0      0      0     33      2      0      0      0     29      0      0      0
     11     14     11     10	    302    105     11     15     10      0      0      0    -39      0      0      0      0    139      0      0      0      0      0      0    -41      0     62      0      0     73      0    -50      0      0    119     -8    166      0      0      0      0      0      0     97      0      0      0      0      0      0      0      0      0    112      0      0      0      0      0      0      0      0      0      0      0    179    -25      0      0
      8     14     12     15	    384    217      8     36      3      0    161      0      0      0      0      0    114      0    -17      0      0      0    119      0      0    156      0    186      1      0     23      0      0    119      0      0    229      0      0     18      0      0      0      0      0      0      0      0     20      0      0    209      0      0      0    -34      0      0    136      0      0    187      0      0      0      0      0      0      0
      6     12     12     12	    317     81     28     33      4      0      0      0      0     72      0      0      0      0      0      0      0      0      0     97      0      0    126      0      0      0      0    131      0     -8      0      0      0      0      0      0      0      0     45      0      0      0      0      0    -35      0    106      0      0      0      0      0      0      0      0      0      0      0      0      0     74      0      0      0      0
     12     13     10     11	    429    236     37     37      9      0      0      0      0    111      0      0      0      0     75    234      0      0      0    178    -40      0      0      0      0      0      0    290      0    166    229      0      0      0      0    123      0      0     27      0      0      0    -11      0      0      0      0      0      0    -23      0    -69      0      0      0      0      0      0      0      0      0      0    -31    -14      0
     11     14     14     14	    412    118     11     12      4      0      0      0      0      0    112    188      0      0      0      0      0      0      0      0      0    307      0      0      0      0      9      0      0      0      0      0      0      0      0      0      0      0      0      0      0      0      0     29      0      0      0      0      0      0      0      0      0    121      0      0     26      0      0      0      0      0      0      0      0
      7     12     14     13	    444    165     24     43      9      0      0      0      0      0      0      0      0      0      0      0      0      0     28    190      0      0      0      0      0      0     92      0     -5      0      0      0      0      0      0     34    260      0      0      0      0      0      0      0      0    -20      0      0    182      0      0      0      0      0      0      0      0      0      0    183      0      0      0      0     37
     11     13     14     15	    178     83     43     43      6      0     93      0    111    135      0      0    -27     64      0      0     54     69      0      0      0      0      0      0      0     99     59      0      0      0     18      0    123      0     34      0      0    -30      0      0      0      0      0      0      0      0     82      0    131      0      0     21     72     93      0      0     86      0      0      0      0    -17      0      0      0
      9     14     14     12	    381    108     34     38      7      0      0      0      0      0      0      0     15      0      0      0      0      0      0      0      0      0    -14      0      0      0    110      0      0      0      0      0      0      0    260      0      0      0      0      0      0      0      0    212      0    100      0     77      0      0      0     39      0      0      0    155      0     15      0    242    -54      0      0      0      0
      8     10     14     12	    232     94     17     41      2      0      0      0    -44      0      0      0      0    -16      0      0      0     27      0    -18      0      0      0      0      0     38      0      0      0      0      0      0      0      0      0    -30      0      0     21      0      0      0      0      0     61      0    100      0      0      0      0      0      0      0      0      0    160    178      0      0      0    137      0     30      0
      8     12     11     13	    142     90     27     31      7      0      0      0      0      0      0      0     43      0      0      0      0      0      0      0      0      0      0    -19      0      0     17     51     62      0      0     45     27      0      0      0      0     21      0      0      0      0      0      0     84      0      0      0      0      0      0      0      0      0      0      0      0      0      0      0      0      0      0      0      0
      8     12     14     11	    420    272     37     40      7      0      0      0      0      0      0      0      0      0    100    -47      0    154      0    -15      0    112      0      0      0      0      0      0      0     97      0      0      0      0      0      0      0      0      0      0      0      0      0      0      0      0      0     41      0      0    -32      0      0      0      0     71      0      0      0      0      0      0      0      0     91
      9     15     12     10	    463     86     14     42      8      0      0    142      0      0      0      0    120      0    -16      0      0      0      0     15      0      0      3      0      0      0      0      0      0      0      0      0      0      0      0      0      0      0      0      0      0      0      0    156      0      0      0      0      0      0     33      0      0      0      0     58      0    131     28      0      0      0      0      0      0
     11     13     15     15	    145     78     23     41      9      0      0      0      0      0      0      0     29      0      0      0      0      0      0      0    115      0      0      0      0      0     22     -5      0      0      0      0      0      0      0      0      0      0      0      0      0      0      0      0      0      0      0      0      0      0      0      0     -1      0      0      0      0      0      0      0    103      0      0      0      0
     12     14     15     15	    162    113     39     39      9      0      1      0      0      0      0      0    -28      0     75      0    118      0      0      0      0      0      0    -20     49      0      0      0      0      0      0      0    -11      0      0      0      0      0      0      0      0      0      0     14      0     12      0    102      0     60      0      0      0      0     95      0      0      0      0     71      0      0      0      0      0
      6     15     15     12	    336     62     17     17      7      0      0    -18      0      0      0      0      0      9      0      0      0    125      0      0      0      0     46      0      0      0      0      0      0      0      0      0      0     29      0      0    212      0      0      0    156      0     14      0      0    119      0     44    -50     92      0      0      0      0    105      0    113      0      0      0      0     15    -33      0      0
      7     14     10     10	    198     70      7     19      6      0      0      0     97      0      0    120      0      0    -14      0      0     73      0      0      0      0      0      0      0      0      0      0      0      0     20    -35      0      0      0      0      0     61     84      0      0      0      0      0      0      0    117      0      0      0      0      0      0      0      0      0    -32      0      0      0    142      0      0      0      0
      8     11     15     13	    165     64     43     43      6      0     67      0     46      0      0      0      0      0      0      0      0      0      0      0      0      0      0      0      0      0      0      0      0      0      0      0      0      0    -20      0    100      0      0      0      0      0     12    119      0      0      0      0     87      0      0      0      0      0      0      0      0      0      0      0      0      0      6      0      0
     10     14     11     15	    345    183     24     28      4      0    231      0     16      0    172      0      0      0     26      0      0      0      0      0     38      0      0      0      0     93      0      0      0      0      0    106      0      0      0     82      0    100      0      0      0      0      0      0    117      0      0      0    176      0      0    185      0      0      0      0      0     21      0    188    -14      0      0      0      0
     10     13     11     10	    422    294     32     37      4      0    215      0      0      0      0      0      0      0      0      0      0      0      0      0     96     82     49      0    115    127      0      0      0      0    209      0      0      0      0      0     77      0      0     41      0      0    102     44      0      0      0      0      0    -23     27      0      0      0      0      0      0      0      0      0      0    -39      0      0      0
     10     11     13     10	    280     61     17     33      2      0      0      0      0      0      0      0      0      0      0      0      0      0      0      0      0      0      0      0      0      0      0    -32      0      0      0      0      0      0    182    131      0      0      0      0      0      0      0    -50      0     87    176      0      0      0      0      0      0      0      0      0      0      0     74      0      0      0      0     77      0
      6     10     10     15	    143     78     41     42      6      0      0      0      0      0      0     85      0    105      3      0      0      0      0      0      8      0      0      0     74      0     34      0     -5    112      0      0    -23      0      0      0      0      0      0      0      0      0     60     92      0      0      0    -23      0      0      0     20      0      0     42     93    -25      0      0      0      0      0      0      0      0
      7     10     11     11	    196    101     37     38      7      0      0      0      0      0    135      0      0    -15      0      0      0      0      0      0     76      0      0      0      0    -16      0      0      0      0      0      0      0      0      0      0      0      0      0    -32     33      0      0      0      0      0      0     27      0      0      0      0      0      0      0      0      0      0      0      0      0      0      0      0      0
      7     15     12     11	    412    266     32     34      6      0      0      0      0      0      0      0     30     87     93      0     10      0      0     41      0      0      0      0      0    163      0      0      0      0    -34      0    -69      0      0     21     39      0      0      0      0      0      0      0      0      0    185      0      0     20      0      0      0      0      0      0      0      0      0      0      0      0      0      0      0
      6     10     12     13	    125     63     35     38      5      0      0      0     68    -19      0      0      0      0      0      0      0      0      0     90      0      0      0      0      0      0      0      0      0      0      0      0      0      0      0     72      0      0      0      0      0     -1      0      0      0      0      0      0      0      0      0      0      0      0      0      0      0      0      0      0      0      0      0      0      0
      7     12     13     10	    372    197     27     43      1      0      0      0      0      0      0      0      0      0      0      0      0      0      0      0      0     79     55      0      0      0    126      0      0      0      0      0      0    121      0     93      0      0      0      0      0      0      0      0      0      0      0      0      0      0      0      0      0      0      0      0      0      0      0    -60      0      0      0     60      0
      6     13     14     10	    494    325     24     41      2     -3      0     71      0     95      0    247      0      0      0      0      0      0      0      0      0      0      0      0      0      0      0      0      0      0    136      0      0      0      0      0      0      0      0      0      0      0     95    105      0      0      0      0      0     42      0      0      0      0      0      0      0      0      0      0      0      0      0      0     43
     12     14     14     14	    216    122     34     39      4     88      0      0      0      0      0      0      0      0      0      0      0    159      0      0      0      0      0      0      0    -22      0      0      0      0      0      0      0      0      0      0    155      0      0     71     58      0      0      0      0      0      0      0      0     93      0      0      0      0      0      0      0      0      0      0      0      0      0      0      0
      7     12     13     11	    238    160     19     40      5      0      0      0      0      0     57      0      0      0      0      0      0    -17      0      0      0      0      0      0     93      0      0    127     33      0      0      0      0     26      0     86      0    160      0      0      0      0      0    113    -32      0      0      0      0    -25      0      0      0      0      0      0      0     -7      0      0      0      0    115     75    133
      9     11     14     10	    269    142     21     22      3      0      0      0      0      0      0      0      0      0      0     88    122      0      0      0      0      0      0     17     18    -28      0      0      2      0    187      0      0      0      0      0     15    178      0      0    131      0      0      0      0      0     21      0      0      0      0      0      0      0      0      0     -7      0      0      0      0      0      0      0      0
     10     15     12     13	    201     62     18     37      2      0      0      0    139      0      0      0      0      0      0      0      0      0      0      0     33     -8      0      0      0      0      0      0      0      0      0      0      0      0      0      0      0      0      0      0     28      0      0      0      0      0      0      0     74      0      0      0      0      0      0      0      0      0      0      0      0      0      0      0      4
     11     13     12     13	    398    134     34     34      1     -4      0     38      0     43      0      0      0      0      0      0      0     19      0      0      0     74      0      0      0      0      0      0      0      0      0      0      0      0    183      0    242      0      0      0      0      0     71      0      0      0    188      0      0      0      0      0      0    -60      0      0      0      0      0      0      0      0      0      0      0
     11     11     14     10	    493    333     38     38      5      0      0      0      0      0      0      0      0      0     71      0     15    132      0      0      0      0     74    301    110     96    177      0      0      0      0     74      0      0      0      0    -54      0      0      0      0    103      0      0    142      0    -14      0      0      0      0      0      0      0      0      0      0      0      0      0      0      0      0      0      0
     11     12     11     14	    311    171     27     37      2      0      0    197      0      0      0    103      0      0      0    -40      0      0      0      0      0      0     51      0      0      0     50      0     29    179      0      0      0      0      0    -17      0    137      0      0      0      0      0     15      0      0      0    -39      0      0      0      0      0      0      0      0      0      0      0      0      0      0    136      0      0
      6     14     15     13	    196     78      8     13      9      0      0     16      0      0      0      0      0      0      0      0      0      0    112      0      0      0      0      0      0      0      0      0      0    -25      0      0    -31      0      0      0      0      0      0      0      0      0      0    -33      0      6      0      0      0      0      0      0      0      0      0      0    115      0      0      0      0    136      0     50      0
      6     12     15     14	    101     60     14     14      5      0      0      0      0      0      0      0      0      0      4    -19      0      0      0      0      0      0      0      0     53      0      0      0      0      0      0      0    -14      0      0      0      0     30      0      0      0      0      0      0      0      0      0      0     77      0      0      0      0     60      0      0     75      0      0      0      0      0     50      0     77
      8     11     10     13	    181     60     10     16      1      0      0      0      0      0      0      0     45      0     94      0      0      0      0    111      0      0     44      0      0      0    110      0      0      0      0      0      0      0     37      0      0      0      0     91      0      0      0      0      0      0      0      0      0      0      0      0      0      0     43      0    133      0      4      0      0      0      0     77      0